60119
20,43,89,98,148,179,262,271,369,455,595,630,654,690,1096,1203,1255,1290,1591,1740,1758,1773,2034,2076,2104,2154,2410,2423,2439,2532,2571,2654,2696,2914,2942,2950,3018,3207,3210,3367,3374,3415,3426,3486,3531,3575,3754,3868,3988,4147,4303,4307,4528,4579,4933,5121,5418,5441,5605,5680,5700,5935,5950,6020,6061,6174,6244,6300,6540,6568,6668,6703,6768,6805,6861,6885,7013,7057,7210,7315,7387,7455,7484,7619,7661,7910,8002,8015,8201,8387,8509,8542,8624,8663,8667,8846,8864,8981,9031,9148,9228,9487,9491,9648,9658,9804
